data/solutions/recovery/degenerate/moderate/flexible/degenerate_moderate_instance1/20.sol
Elapsed time: 0.04
Upper bound: 237410.0
Planning weighted value: 2020776.0
C[0]=237410.0
C[1]=237336.0
C[2]=236390.0
y[0]=0
y[1]=1
y[2]=2
y[3]=1
y[4]=1
y[5]=1
y[6]=2
y[7]=2
y[8]=2
y[9]=1
y[10]=2
y[11]=2
y[12]=2
y[13]=1
y[14]=1
y[15]=2
y[16]=0
y[17]=0
y[18]=0
y[19]=1
y[20]=0
y[21]=0
