data/solutions/recovery/degenerate/moderate/flexible/degenerate_moderate_instance1/20.log

Log started (V12.6.3.0) Sat Apr 21 11:01:58 2018

New value for default parallel thread count: 1

Problem '/tmp/tmpmW2Ojp.pyomo.lp' read.
Read time = 0.00 sec. (0.02 ticks)

Problem name         : /tmp/tmpmW2Ojp.pyomo.lp
Objective sense      : Minimize
Variables            :      71  [Nneg: 1,  Binary: 66,  General Integer: 4]
Objective nonzeros   :       1
Linear constraints   :      51  [Less: 25,  Equal: 26]
  Nonzeros           :    1019
  RHS nonzeros       :      45

Variables            : Min LB: 0.000000         Max UB: 1.000000       
Objective nonzeros   : Min   : 1.000000         Max   : 1.000000       
Linear constraints   :
  Nonzeros           : Min   : 1.000000         Max   : 93707.00       
  RHS nonzeros       : Min   : 1.000000         Max   : 3.000000       
Tried aggregator 2 times.
MIP Presolve eliminated 22 rows and 3 columns.
Aggregator did 4 substitutions.
Reduced MIP has 25 rows, 64 columns, and 167 nonzeros.
Reduced MIP has 63 binaries, 1 generals, 0 SOSs, and 0 indicators.
Presolve time = 0.00 sec. (0.42 ticks)
Found incumbent of value 711136.000000 after 0.00 sec. (0.63 ticks)
Probing time = 0.00 sec. (0.04 ticks)
Cover probing fixed 0 vars, tightened 6 bounds.
Tried aggregator 1 time.
Reduced MIP has 25 rows, 64 columns, and 167 nonzeros.
Reduced MIP has 63 binaries, 1 generals, 0 SOSs, and 0 indicators.
Presolve time = 0.00 sec. (0.10 ticks)
Probing time = 0.00 sec. (0.03 ticks)
Clique table members: 21.
MIP emphasis: balance optimality and feasibility.
MIP search method: dynamic search.
Parallel mode: none, using 1 thread.
Root relaxation solution time = 0.00 sec. (0.06 ticks)

        Nodes                                         Cuts/
   Node  Left     Objective  IInf  Best Integer    Best Bound    ItCnt     Gap

*     0+    0                       711136.0000    93707.0000            86.82%
      0     0   237045.3333     5   711136.0000   237045.3333        7   66.67%
*     0+    0                       258963.0000   237045.3333             8.46%
      0     0   237046.0000     7   258963.0000      Fract: 2       19    8.46%
*     0+    0                       251175.0000   237046.0000             5.63%
      0     0   237046.0000     8   251175.0000       Cuts: 9       29    5.63%
*     0+    0                       245061.0000   237046.0000             3.27%
      0     2   237046.0000     8   245061.0000   237046.0000       29    3.27%
Elapsed time = 0.00 sec. (2.04 ticks, tree = 0.01 MB, solutions = 3)
*    10+    8                       243256.0000   237046.0000             2.55%
*    19    16      integral     0   237611.0000   237046.0000       84    0.24%
*   120    10      integral     0   237410.0000   237046.0000      391    0.15%

Cover cuts applied:  2
Mixed integer rounding cuts applied:  1

Root node processing (before b&c):
  Real time             =    0.00 sec. (2.03 ticks)
Sequential b&c:
  Real time             =    0.01 sec. (3.27 ticks)
                          ------------
Total (root+branch&cut) =    0.01 sec. (5.31 ticks)

Solution pool: 6 solutions saved.

MIP - Integer optimal solution:  Objective =  2.3741000000e+05
Solution time =    0.01 sec.  Iterations = 420  Nodes = 139
Deterministic time = 5.31 ticks  (488.41 ticks/sec)


Incumbent solution written to file '/tmp/tmpS0TLEi.cplex.sol'.
